(set-logic QF_NRA)
(set-info :source |Benchmarks generated from hycomp (https://es-static.fbk.eu/tools/hycomp/). BMC instances of non-linear hybrid automata taken from: Alessandro Cimatti, Sergio Mover, Stefano Tonetta, A quantifier-free SMT encoding of non-linear hybrid automata, FMCAD 2012 and Alessandro Cimatti, Sergio Mover, Stefano Tonetta, Quantier-free encoding of invariants for Hybrid Systems, Formal Methods in System Design. This instance solves a BMC problem of depth 2 and uses the quantifier free encoding with equivalences and lemmas encoding. Contacts: Sergio Mover (mover@fbk.eu), Stefano Tonetta (tonettas@fbk.eu), Alessandro Cimatti (cimatti@fbk.eu).|)
(set-info :smt-lib-version 2.0)
(set-info :category "industrial")
(set-info :status unsat)
;; MathSAT API call trace
;; generated on Mon Mar 19 10:48:29 2012
(declare-fun b.counter.2__AT1 () Bool)
(declare-fun speed_loss__AT0 () Real)
(declare-fun b.event_is_timed__AT2 () Bool)
(declare-fun b.speed_y__AT0 () Real)
(declare-fun b.event_is_timed__AT1 () Bool)
(declare-fun b.counter.0__AT2 () Bool)
(declare-fun b.event_is_timed__AT0 () Bool)
(declare-fun b.counter.1__AT2 () Bool)
(declare-fun b.counter.3__AT1 () Bool)
(declare-fun b.time__AT2 () Real)
(declare-fun b.delta__AT0 () Real)
(declare-fun b.delta__AT2 () Real)
(declare-fun b.y__AT1 () Real)
(declare-fun b.EVENT.0__AT2 () Bool)
(declare-fun b.counter.0__AT1 () Bool)
(declare-fun b.counter.3__AT0 () Bool)
(declare-fun b.y__AT2 () Real)
(declare-fun b.EVENT.1__AT2 () Bool)
(declare-fun b.delta__AT1 () Real)
(declare-fun b.EVENT.0__AT1 () Bool)
(declare-fun b.EVENT.1__AT0 () Bool)
(declare-fun b.EVENT.1__AT1 () Bool)
(declare-fun b.EVENT.0__AT0 () Bool)
(declare-fun b.time__AT1 () Real)
(declare-fun b.speed_y__AT1 () Real)
(declare-fun b.time__AT0 () Real)
(declare-fun b.speed_y__AT2 () Real)
(declare-fun b.counter.2__AT2 () Bool)
(declare-fun b.y__AT0 () Real)
(declare-fun b.counter.3__AT2 () Bool)
(declare-fun b.counter.0__AT0 () Bool)
(declare-fun b.counter.2__AT0 () Bool)
(declare-fun b.counter.1__AT0 () Bool)
(declare-fun b.counter.1__AT1 () Bool)
(assert (let ((.def_467 (<= 0.0 b.speed_y__AT2)))
(let ((.def_461 (* (- 49.0) b.delta__AT2)))
(let ((.def_462 (* 5.0 b.speed_y__AT2)))
(let ((.def_464 (+ .def_462 .def_461)))
(let ((.def_465 (<= 0.0 .def_464)))
(let ((.def_466 (not .def_465)))
(let ((.def_498 (or .def_466 .def_467)))
(let ((.def_481 (<= .def_464 0.0 )))
(let ((.def_479 (<= b.speed_y__AT2 0.0 )))
(let ((.def_480 (not .def_479)))
(let ((.def_497 (or .def_480 .def_481)))
(let ((.def_499 (and .def_497 .def_498)))
(let ((.def_494 (and .def_479 .def_481)))
(let ((.def_493 (and .def_465 .def_467)))
(let ((.def_495 (or .def_493 .def_494)))
(let ((.def_453 (* b.speed_y__AT2 b.delta__AT2)))
(let ((.def_454 (* 10.0 .def_453)))
(let ((.def_451 (* b.delta__AT2 b.delta__AT2)))
(let ((.def_452 (* (- 49.0) .def_451)))
(let ((.def_455 (+ .def_452 .def_454)))
(let ((.def_456 (* 10.0 b.y__AT2)))
(let ((.def_458 (+ .def_456 .def_455)))
(let ((.def_473 (<= .def_458 0.0 )))
(let ((.def_487 (not .def_473)))
(let ((.def_471 (<= b.y__AT2 0.0 )))
(let ((.def_488 (or .def_471 .def_487)))
(let ((.def_441 (<= 0.0 b.y__AT2)))
(let ((.def_485 (not .def_441)))
(let ((.def_459 (<= 0.0 .def_458)))
(let ((.def_486 (or .def_459 .def_485)))
(let ((.def_489 (and .def_486 .def_488)))
(let ((.def_482 (not .def_481)))
(let ((.def_483 (or .def_480 .def_482)))
(let ((.def_484 (not .def_483)))
(let ((.def_490 (or .def_484 .def_489)))
(let ((.def_475 (not .def_459)))
(let ((.def_476 (or .def_441 .def_475)))
(let ((.def_472 (not .def_471)))
(let ((.def_474 (or .def_472 .def_473)))
(let ((.def_477 (and .def_474 .def_476)))
(let ((.def_468 (not .def_467)))
(let ((.def_469 (or .def_466 .def_468)))
(let ((.def_470 (not .def_469)))
(let ((.def_478 (or .def_470 .def_477)))
(let ((.def_491 (and .def_478 .def_490)))
(let ((.def_460 (and .def_441 .def_459)))
(let ((.def_492 (and .def_460 .def_491)))
(let ((.def_496 (and .def_492 .def_495)))
(let ((.def_500 (and .def_496 .def_499)))
(let ((.def_57 (<= speed_loss__AT0 (/ 1 2))))
(let ((.def_54 (<= (/ 1 10) speed_loss__AT0)))
(let ((.def_58 (and .def_54 .def_57)))
(let ((.def_501 (and .def_58 .def_500)))
(let ((.def_142 (not b.counter.0__AT1)))
(let ((.def_445 (or b.counter.1__AT1 .def_142)))
(let ((.def_137 (not b.counter.2__AT1)))
(let ((.def_446 (or .def_137 .def_445)))
(let ((.def_447 (or b.counter.3__AT1 .def_446)))
(let ((.def_442 (and .def_58 .def_441)))
(let ((.def_438 (not b.EVENT.0__AT2)))
(let ((.def_436 (not b.EVENT.1__AT2)))
(let ((.def_439 (or .def_436 .def_438)))
(let ((.def_323 (not b.counter.1__AT2)))
(let ((.def_4 (not b.counter.0__AT2)))
(let ((.def_429 (or .def_4 .def_323)))
(let ((.def_433 (or b.counter.3__AT2 .def_429)))
(let ((.def_430 (or b.counter.2__AT2 .def_429)))
(let ((.def_8 (not b.counter.2__AT2)))
(let ((.def_428 (or .def_4 .def_8)))
(let ((.def_431 (and .def_428 .def_430)))
(let ((.def_340 (not b.counter.3__AT2)))
(let ((.def_432 (or .def_340 .def_431)))
(let ((.def_434 (and .def_432 .def_433)))
(let ((.def_440 (and .def_434 .def_439)))
(let ((.def_443 (and .def_440 .def_442)))
(let ((.def_423 (<= 0.0 b.delta__AT1)))
(let ((.def_251 (not b.EVENT.0__AT1)))
(let ((.def_249 (not b.EVENT.1__AT1)))
(let ((.def_370 (and .def_249 .def_251)))
(let ((.def_374 (not .def_370)))
(let ((.def_424 (or .def_374 .def_423)))
(let ((.def_425 (or b.EVENT.1__AT1 .def_424)))
(let ((.def_362 (= b.counter.0__AT2 b.counter.0__AT1)))
(let ((.def_360 (= b.counter.1__AT2 b.counter.1__AT1)))
(let ((.def_358 (= b.counter.2__AT2 b.counter.2__AT1)))
(let ((.def_357 (= b.counter.3__AT2 b.counter.3__AT1)))
(let ((.def_359 (and .def_357 .def_358)))
(let ((.def_361 (and .def_359 .def_360)))
(let ((.def_363 (and .def_361 .def_362)))
(let ((.def_420 (or .def_363 .def_374)))
(let ((.def_421 (or b.EVENT.1__AT1 .def_420)))
(let ((.def_408 (* (- 10.0) b.y__AT2)))
(let ((.def_266 (* b.speed_y__AT1 b.delta__AT1)))
(let ((.def_267 (* 10.0 .def_266)))
(let ((.def_412 (+ .def_267 .def_408)))
(let ((.def_264 (* b.delta__AT1 b.delta__AT1)))
(let ((.def_265 (* (- 49.0) .def_264)))
(let ((.def_413 (+ .def_265 .def_412)))
(let ((.def_269 (* 10.0 b.y__AT1)))
(let ((.def_414 (+ .def_269 .def_413)))
(let ((.def_415 (= .def_414 0.0 )))
(let ((.def_404 (* (- 5.0) b.speed_y__AT2)))
(let ((.def_274 (* (- 49.0) b.delta__AT1)))
(let ((.def_405 (+ .def_274 .def_404)))
(let ((.def_275 (* 5.0 b.speed_y__AT1)))
(let ((.def_406 (+ .def_275 .def_405)))
(let ((.def_407 (= .def_406 0.0 )))
(let ((.def_416 (and .def_407 .def_415)))
(let ((.def_417 (or .def_374 .def_416)))
(let ((.def_368 (= b.y__AT1 b.y__AT2)))
(let ((.def_356 (= b.speed_y__AT1 b.speed_y__AT2)))
(let ((.def_401 (and .def_356 .def_368)))
(let ((.def_398 (= b.delta__AT1 0.0 )))
(let ((.def_399 (and .def_370 .def_398)))
(let ((.def_400 (not .def_399)))
(let ((.def_402 (or .def_400 .def_401)))
(let ((.def_403 (or b.EVENT.1__AT1 .def_402)))
(let ((.def_418 (and .def_403 .def_417)))
(let ((.def_380 (= b.time__AT1 b.time__AT2)))
(let ((.def_392 (and .def_368 .def_380)))
(let ((.def_393 (and .def_356 .def_392)))
(let ((.def_394 (and .def_363 .def_393)))
(let ((.def_395 (or .def_249 .def_394)))
(let ((.def_383 (* (- 1.0) b.time__AT2)))
(let ((.def_386 (+ b.delta__AT1 .def_383)))
(let ((.def_387 (+ b.time__AT1 .def_386)))
(let ((.def_388 (= .def_387 0.0 )))
(let ((.def_389 (or .def_374 .def_388)))
(let ((.def_390 (or b.EVENT.1__AT1 .def_389)))
(let ((.def_381 (or .def_370 .def_380)))
(let ((.def_382 (or b.EVENT.1__AT1 .def_381)))
(let ((.def_391 (and .def_382 .def_390)))
(let ((.def_396 (and .def_391 .def_395)))
(let ((.def_376 (= .def_374 b.event_is_timed__AT2)))
(let ((.def_373 (= b.event_is_timed__AT1 .def_370)))
(let ((.def_377 (and .def_373 .def_376)))
(let ((.def_364 (and .def_356 .def_363)))
(let ((.def_316 (= b.y__AT1 0.0 )))
(let ((.def_280 (<= 0.0 b.speed_y__AT1)))
(let ((.def_281 (not .def_280)))
(let ((.def_317 (and .def_281 .def_316)))
(let ((.def_365 (or .def_317 .def_364)))
(let ((.def_332 (or .def_4 b.counter.0__AT1)))
(let ((.def_331 (or b.counter.0__AT2 .def_142)))
(let ((.def_333 (and .def_331 .def_332)))
(let ((.def_334 (and .def_323 .def_333)))
(let ((.def_335 (or b.counter.1__AT1 .def_334)))
(let ((.def_130 (not b.counter.1__AT1)))
(let ((.def_330 (or b.counter.1__AT2 .def_130)))
(let ((.def_336 (and .def_330 .def_335)))
(let ((.def_348 (and .def_8 .def_336)))
(let ((.def_349 (or b.counter.2__AT1 .def_348)))
(let ((.def_343 (and .def_142 .def_323)))
(let ((.def_344 (or b.counter.1__AT1 .def_343)))
(let ((.def_345 (and .def_330 .def_344)))
(let ((.def_346 (and b.counter.2__AT2 .def_345)))
(let ((.def_347 (or .def_137 .def_346)))
(let ((.def_350 (and .def_347 .def_349)))
(let ((.def_351 (and b.counter.3__AT2 .def_350)))
(let ((.def_352 (or b.counter.3__AT1 .def_351)))
(let ((.def_337 (and b.counter.2__AT2 .def_336)))
(let ((.def_338 (or b.counter.2__AT1 .def_337)))
(let ((.def_326 (or b.counter.1__AT2 b.counter.1__AT1)))
(let ((.def_324 (and b.counter.0__AT2 .def_323)))
(let ((.def_325 (or .def_130 .def_324)))
(let ((.def_327 (and .def_325 .def_326)))
(let ((.def_328 (and .def_8 .def_327)))
(let ((.def_329 (or .def_137 .def_328)))
(let ((.def_339 (and .def_329 .def_338)))
(let ((.def_341 (and .def_339 .def_340)))
(let ((.def_152 (not b.counter.3__AT1)))
(let ((.def_342 (or .def_152 .def_341)))
(let ((.def_353 (and .def_342 .def_352)))
(let ((.def_319 (* (- 1.0) b.speed_y__AT1)))
(let ((.def_124 (* (- 1.0) speed_loss__AT0)))
(let ((.def_125 (+ 1.0 .def_124)))
(let ((.def_320 (* .def_125 .def_319)))
(let ((.def_322 (= .def_320 b.speed_y__AT2)))
(let ((.def_354 (and .def_322 .def_353)))
(let ((.def_318 (not .def_317)))
(let ((.def_355 (or .def_318 .def_354)))
(let ((.def_366 (and .def_355 .def_365)))
(let ((.def_369 (and .def_366 .def_368)))
(let ((.def_371 (or .def_369 .def_370)))
(let ((.def_372 (or b.EVENT.1__AT1 .def_371)))
(let ((.def_378 (and .def_372 .def_377)))
(let ((.def_397 (and .def_378 .def_396)))
(let ((.def_419 (and .def_397 .def_418)))
(let ((.def_422 (and .def_419 .def_421)))
(let ((.def_426 (and .def_422 .def_425)))
(let ((.def_427 (and .def_249 .def_426)))
(let ((.def_444 (and .def_427 .def_443)))
(let ((.def_448 (and .def_444 .def_447)))
(let ((.def_277 (+ .def_275 .def_274)))
(let ((.def_278 (<= 0.0 .def_277)))
(let ((.def_279 (not .def_278)))
(let ((.def_311 (or .def_279 .def_280)))
(let ((.def_294 (<= .def_277 0.0 )))
(let ((.def_292 (<= b.speed_y__AT1 0.0 )))
(let ((.def_293 (not .def_292)))
(let ((.def_310 (or .def_293 .def_294)))
(let ((.def_312 (and .def_310 .def_311)))
(let ((.def_307 (and .def_292 .def_294)))
(let ((.def_306 (and .def_278 .def_280)))
(let ((.def_308 (or .def_306 .def_307)))
(let ((.def_268 (+ .def_265 .def_267)))
(let ((.def_271 (+ .def_269 .def_268)))
(let ((.def_286 (<= .def_271 0.0 )))
(let ((.def_300 (not .def_286)))
(let ((.def_284 (<= b.y__AT1 0.0 )))
(let ((.def_301 (or .def_284 .def_300)))
(let ((.def_254 (<= 0.0 b.y__AT1)))
(let ((.def_298 (not .def_254)))
(let ((.def_272 (<= 0.0 .def_271)))
(let ((.def_299 (or .def_272 .def_298)))
(let ((.def_302 (and .def_299 .def_301)))
(let ((.def_295 (not .def_294)))
(let ((.def_296 (or .def_293 .def_295)))
(let ((.def_297 (not .def_296)))
(let ((.def_303 (or .def_297 .def_302)))
(let ((.def_288 (not .def_272)))
(let ((.def_289 (or .def_254 .def_288)))
(let ((.def_285 (not .def_284)))
(let ((.def_287 (or .def_285 .def_286)))
(let ((.def_290 (and .def_287 .def_289)))
(let ((.def_282 (or .def_279 .def_281)))
(let ((.def_283 (not .def_282)))
(let ((.def_291 (or .def_283 .def_290)))
(let ((.def_304 (and .def_291 .def_303)))
(let ((.def_273 (and .def_254 .def_272)))
(let ((.def_305 (and .def_273 .def_304)))
(let ((.def_309 (and .def_305 .def_308)))
(let ((.def_313 (and .def_309 .def_312)))
(let ((.def_314 (and .def_58 .def_313)))
(let ((.def_28 (not b.counter.0__AT0)))
(let ((.def_258 (or b.counter.1__AT0 .def_28)))
(let ((.def_31 (not b.counter.2__AT0)))
(let ((.def_259 (or .def_31 .def_258)))
(let ((.def_260 (or b.counter.3__AT0 .def_259)))
(let ((.def_255 (and .def_58 .def_254)))
(let ((.def_252 (or .def_249 .def_251)))
(let ((.def_242 (or .def_130 .def_142)))
(let ((.def_246 (or b.counter.3__AT1 .def_242)))
(let ((.def_243 (or b.counter.2__AT1 .def_242)))
(let ((.def_241 (or .def_137 .def_142)))
(let ((.def_244 (and .def_241 .def_243)))
(let ((.def_245 (or .def_152 .def_244)))
(let ((.def_247 (and .def_245 .def_246)))
(let ((.def_253 (and .def_247 .def_252)))
(let ((.def_256 (and .def_253 .def_255)))
(let ((.def_236 (<= 0.0 b.delta__AT0)))
(let ((.def_47 (not b.EVENT.0__AT0)))
(let ((.def_45 (not b.EVENT.1__AT0)))
(let ((.def_182 (and .def_45 .def_47)))
(let ((.def_186 (not .def_182)))
(let ((.def_237 (or .def_186 .def_236)))
(let ((.def_238 (or b.EVENT.1__AT0 .def_237)))
(let ((.def_174 (= b.counter.0__AT0 b.counter.0__AT1)))
(let ((.def_172 (= b.counter.1__AT0 b.counter.1__AT1)))
(let ((.def_170 (= b.counter.2__AT0 b.counter.2__AT1)))
(let ((.def_169 (= b.counter.3__AT0 b.counter.3__AT1)))
(let ((.def_171 (and .def_169 .def_170)))
(let ((.def_173 (and .def_171 .def_172)))
(let ((.def_175 (and .def_173 .def_174)))
(let ((.def_233 (or .def_175 .def_186)))
(let ((.def_234 (or b.EVENT.1__AT0 .def_233)))
(let ((.def_222 (* (- 10.0) b.y__AT1)))
(let ((.def_68 (* b.speed_y__AT0 b.delta__AT0)))
(let ((.def_69 (* 10.0 .def_68)))
(let ((.def_225 (+ .def_69 .def_222)))
(let ((.def_64 (* b.delta__AT0 b.delta__AT0)))
(let ((.def_67 (* (- 49.0) .def_64)))
(let ((.def_226 (+ .def_67 .def_225)))
(let ((.def_71 (* 10.0 b.y__AT0)))
(let ((.def_227 (+ .def_71 .def_226)))
(let ((.def_228 (= .def_227 0.0 )))
(let ((.def_217 (* (- 5.0) b.speed_y__AT1)))
(let ((.def_76 (* (- 49.0) b.delta__AT0)))
(let ((.def_218 (+ .def_76 .def_217)))
(let ((.def_78 (* 5.0 b.speed_y__AT0)))
(let ((.def_219 (+ .def_78 .def_218)))
(let ((.def_220 (= .def_219 0.0 )))
(let ((.def_229 (and .def_220 .def_228)))
(let ((.def_230 (or .def_186 .def_229)))
(let ((.def_180 (= b.y__AT0 b.y__AT1)))
(let ((.def_168 (= b.speed_y__AT0 b.speed_y__AT1)))
(let ((.def_213 (and .def_168 .def_180)))
(let ((.def_210 (= b.delta__AT0 0.0 )))
(let ((.def_211 (and .def_182 .def_210)))
(let ((.def_212 (not .def_211)))
(let ((.def_214 (or .def_212 .def_213)))
(let ((.def_215 (or b.EVENT.1__AT0 .def_214)))
(let ((.def_231 (and .def_215 .def_230)))
(let ((.def_192 (= b.time__AT0 b.time__AT1)))
(let ((.def_204 (and .def_180 .def_192)))
(let ((.def_205 (and .def_168 .def_204)))
(let ((.def_206 (and .def_175 .def_205)))
(let ((.def_207 (or .def_45 .def_206)))
(let ((.def_195 (* (- 1.0) b.time__AT1)))
(let ((.def_198 (+ b.delta__AT0 .def_195)))
(let ((.def_199 (+ b.time__AT0 .def_198)))
(let ((.def_200 (= .def_199 0.0 )))
(let ((.def_201 (or .def_186 .def_200)))
(let ((.def_202 (or b.EVENT.1__AT0 .def_201)))
(let ((.def_193 (or .def_182 .def_192)))
(let ((.def_194 (or b.EVENT.1__AT0 .def_193)))
(let ((.def_203 (and .def_194 .def_202)))
(let ((.def_208 (and .def_203 .def_207)))
(let ((.def_188 (= .def_186 b.event_is_timed__AT1)))
(let ((.def_185 (= b.event_is_timed__AT0 .def_182)))
(let ((.def_189 (and .def_185 .def_188)))
(let ((.def_176 (and .def_168 .def_175)))
(let ((.def_119 (= b.y__AT0 0.0 )))
(let ((.def_83 (<= 0.0 b.speed_y__AT0)))
(let ((.def_84 (not .def_83)))
(let ((.def_120 (and .def_84 .def_119)))
(let ((.def_177 (or .def_120 .def_176)))
(let ((.def_143 (or b.counter.0__AT0 .def_142)))
(let ((.def_141 (or .def_28 b.counter.0__AT1)))
(let ((.def_144 (and .def_141 .def_143)))
(let ((.def_145 (and .def_130 .def_144)))
(let ((.def_146 (or b.counter.1__AT0 .def_145)))
(let ((.def_26 (not b.counter.1__AT0)))
(let ((.def_140 (or .def_26 b.counter.1__AT1)))
(let ((.def_147 (and .def_140 .def_146)))
(let ((.def_160 (and .def_137 .def_147)))
(let ((.def_161 (or b.counter.2__AT0 .def_160)))
(let ((.def_155 (and .def_28 .def_130)))
(let ((.def_156 (or b.counter.1__AT0 .def_155)))
(let ((.def_157 (and .def_140 .def_156)))
(let ((.def_158 (and b.counter.2__AT1 .def_157)))
(let ((.def_159 (or .def_31 .def_158)))
(let ((.def_162 (and .def_159 .def_161)))
(let ((.def_163 (and b.counter.3__AT1 .def_162)))
(let ((.def_164 (or b.counter.3__AT0 .def_163)))
(let ((.def_148 (and b.counter.2__AT1 .def_147)))
(let ((.def_149 (or b.counter.2__AT0 .def_148)))
(let ((.def_134 (or b.counter.1__AT0 b.counter.1__AT1)))
(let ((.def_132 (and .def_130 b.counter.0__AT1)))
(let ((.def_133 (or .def_26 .def_132)))
(let ((.def_135 (and .def_133 .def_134)))
(let ((.def_138 (and .def_135 .def_137)))
(let ((.def_139 (or .def_31 .def_138)))
(let ((.def_150 (and .def_139 .def_149)))
(let ((.def_153 (and .def_150 .def_152)))
(let ((.def_34 (not b.counter.3__AT0)))
(let ((.def_154 (or .def_34 .def_153)))
(let ((.def_165 (and .def_154 .def_164)))
(let ((.def_123 (* (- 1.0) b.speed_y__AT0)))
(let ((.def_126 (* .def_123 .def_125)))
(let ((.def_128 (= .def_126 b.speed_y__AT1)))
(let ((.def_166 (and .def_128 .def_165)))
(let ((.def_121 (not .def_120)))
(let ((.def_167 (or .def_121 .def_166)))
(let ((.def_178 (and .def_167 .def_177)))
(let ((.def_181 (and .def_178 .def_180)))
(let ((.def_183 (or .def_181 .def_182)))
(let ((.def_184 (or b.EVENT.1__AT0 .def_183)))
(let ((.def_190 (and .def_184 .def_189)))
(let ((.def_209 (and .def_190 .def_208)))
(let ((.def_232 (and .def_209 .def_231)))
(let ((.def_235 (and .def_232 .def_234)))
(let ((.def_239 (and .def_235 .def_238)))
(let ((.def_240 (and .def_45 .def_239)))
(let ((.def_257 (and .def_240 .def_256)))
(let ((.def_261 (and .def_257 .def_260)))
(let ((.def_80 (+ .def_78 .def_76)))
(let ((.def_81 (<= 0.0 .def_80)))
(let ((.def_82 (not .def_81)))
(let ((.def_114 (or .def_82 .def_83)))
(let ((.def_97 (<= .def_80 0.0 )))
(let ((.def_95 (<= b.speed_y__AT0 0.0 )))
(let ((.def_96 (not .def_95)))
(let ((.def_113 (or .def_96 .def_97)))
(let ((.def_115 (and .def_113 .def_114)))
(let ((.def_110 (and .def_95 .def_97)))
(let ((.def_109 (and .def_81 .def_83)))
(let ((.def_111 (or .def_109 .def_110)))
(let ((.def_70 (+ .def_67 .def_69)))
(let ((.def_73 (+ .def_71 .def_70)))
(let ((.def_89 (<= .def_73 0.0 )))
(let ((.def_103 (not .def_89)))
(let ((.def_87 (<= b.y__AT0 0.0 )))
(let ((.def_104 (or .def_87 .def_103)))
(let ((.def_50 (<= 0.0 b.y__AT0)))
(let ((.def_101 (not .def_50)))
(let ((.def_74 (<= 0.0 .def_73)))
(let ((.def_102 (or .def_74 .def_101)))
(let ((.def_105 (and .def_102 .def_104)))
(let ((.def_98 (not .def_97)))
(let ((.def_99 (or .def_96 .def_98)))
(let ((.def_100 (not .def_99)))
(let ((.def_106 (or .def_100 .def_105)))
(let ((.def_91 (not .def_74)))
(let ((.def_92 (or .def_50 .def_91)))
(let ((.def_88 (not .def_87)))
(let ((.def_90 (or .def_88 .def_89)))
(let ((.def_93 (and .def_90 .def_92)))
(let ((.def_85 (or .def_82 .def_84)))
(let ((.def_86 (not .def_85)))
(let ((.def_94 (or .def_86 .def_93)))
(let ((.def_107 (and .def_94 .def_106)))
(let ((.def_75 (and .def_50 .def_74)))
(let ((.def_108 (and .def_75 .def_107)))
(let ((.def_112 (and .def_108 .def_111)))
(let ((.def_116 (and .def_112 .def_115)))
(let ((.def_117 (and .def_58 .def_116)))
(let ((.def_59 (and .def_50 .def_58)))
(let ((.def_48 (or .def_45 .def_47)))
(let ((.def_38 (or .def_26 .def_28)))
(let ((.def_42 (or b.counter.3__AT0 .def_38)))
(let ((.def_39 (or b.counter.2__AT0 .def_38)))
(let ((.def_37 (or .def_28 .def_31)))
(let ((.def_40 (and .def_37 .def_39)))
(let ((.def_41 (or .def_34 .def_40)))
(let ((.def_43 (and .def_41 .def_42)))
(let ((.def_49 (and .def_43 .def_48)))
(let ((.def_60 (and .def_49 .def_59)))
(let ((.def_29 (and .def_26 .def_28)))
(let ((.def_32 (and .def_29 .def_31)))
(let ((.def_35 (and .def_32 .def_34)))
(let ((.def_23 (= b.speed_y__AT0 0.0 )))
(let ((.def_20 (= b.y__AT0 10.0 )))
(let ((.def_15 (= b.time__AT0 0.0 )))
(let ((.def_17 (and .def_15 b.event_is_timed__AT0)))
(let ((.def_21 (and .def_17 .def_20)))
(let ((.def_24 (and .def_21 .def_23)))
(let ((.def_36 (and .def_24 .def_35)))
(let ((.def_61 (and .def_36 .def_60)))
(let ((.def_6 (or .def_4 b.counter.1__AT2)))
(let ((.def_9 (or .def_6 .def_8)))
(let ((.def_11 (or .def_9 b.counter.3__AT2)))
(let ((.def_12 (not .def_11)))
(let ((.def_62 (and .def_12 .def_61)))
(let ((.def_118 (and .def_62 .def_117)))
(let ((.def_262 (and .def_118 .def_261)))
(let ((.def_315 (and .def_262 .def_314)))
(let ((.def_449 (and .def_315 .def_448)))
(let ((.def_502 (and .def_449 .def_501)))
.def_502))))))))))))))))))))))))))))))))))))))))))))))))))))))))))))))))))))))))))))))))))))))))))))))))))))))))))))))))))))))))))))))))))))))))))))))))))))))))))))))))))))))))))))))))))))))))))))))))))))))))))))))))))))))))))))))))))))))))))))))))))))))))))))))))))))))))))))))))))))))))))))))))))))))))))))))))))))))))))))))))))))))))))))))))))))))))))))))))))))))))))))))))))))))))))))))))))))))))))))))))))))))))))))))))))))))))))))))))))))))))
(check-sat)
(exit)
